20
2 0 13
3 2 9
4 0 5
4 1 5
4 2 4
4 3 12
5 1 4
5 2 6
5 3 8
6 0 1
7 1 5
7 2 2
7 4 2
8 1 7
8 5 3
8 7 1
9 4 6
9 5 7
9 6 10
9 7 9
9 8 10
10 0 4
10 3 8
11 2 5
11 3 9
11 4 5
11 6 10
11 8 5
11 9 4
12 1 8
12 2 5
12 3 3
12 5 5
12 10 13
13 0 10
13 3 13
13 4 4
13 5 5
13 6 10
13 8 13
13 9 11
13 11 8
14 0 10
14 1 1
14 2 3
14 3 9
14 4 4
14 5 12
14 10 8
14 13 5
15 0 12
15 3 8
15 5 8
15 6 8
15 8 1
15 11 7
15 12 5
15 13 9
16 0 8
16 1 1
16 2 10
16 4 7
16 8 8
16 9 11
16 10 10
16 11 6
16 12 3
17 0 11
17 3 4
17 4 9
17 7 9
17 8 6
17 11 9
17 12 9
17 13 6
18 0 9
18 1 2
18 2 5
18 3 8
18 4 10
18 5 10
18 6 6
18 9 3
18 11 2
18 12 10
18 14 4
18 15 10
18 17 7
19 8 1
19 10 2
19 11 7
19 14 5
19 15 5
19 16 12
19 17 8
